c   #vars: 78   #clauses: 358   #literals: 1004
c 
p cnf 78 358
-1 -2 0
-3 -4 0
-5 -6 0
-7 -8 0
-9 -10 0
-11 -12 0
16 33 34 -58 0
-14 -15 0
19 -50 71 72 0
-17 -18 0
20 -70 77 78 0
52 60 61 -77 0
7 8 66 67 0
14 15 66 67 0
-21 -22 0
-23 -24 0
-25 -26 0
7 8 -27 57 0
9 10 27 28 0
19 50 51 -71 0
-27 -28 0
-29 -30 0
-31 -32 0
-33 -34 0
-35 -36 0
-37 -38 0
-39 -40 0
-41 -42 0
-43 -44 0
-45 -46 0
-47 -48 0
-50 -51 0
-31 33 34 53 0
21 22 -31 56 0
7 8 54 55 0
-54 -55 0
-27 33 34 57 0
-32 41 42 70 0
-58 -59 0
-60 -61 0
-62 -63 0
-64 -65 0
3 4 64 65 0
-66 -67 0
-68 -69 0
9 10 -45 76 0
-71 -72 0
13 -25 74 75 0
33 34 62 63 0
-74 -75 0
3 4 54 55 0
-77 -78 0
14 15 27 28 0
1 2 -37 73 0
-1 -27 0
-2 -28 0
-1 -33 0
-2 -34 0
5 6 25 26 0
-1 -58 0
-2 -59 0
13 39 40 -74 0
-2 -73 0
-3 -41 0
-4 -42 0
39 40 54 55 0
-3 -43 0
-4 -44 0
-3 -47 0
-4 -48 0
23 24 43 44 0
-14 33 34 53 0
-4 -52 0
7 8 43 44 0
-3 -54 0
-4 -55 0
-3 -64 0
-4 -65 0
13 -25 39 40 0
-4 -73 0
23 24 58 59 0
-4 -76 0
35 36 58 59 0
-5 -25 0
-6 -26 0
20 -32 -62 70 0
-5 -37 0
-6 -38 0
11 12 43 44 0
-5 -47 0
-6 -48 0
-5 -66 0
-6 -67 0
17 18 54 55 0
-7 -43 0
-8 -44 0
47 48 77 78 0
-7 -45 0
-8 -46 0
14 15 -33 53 0
-7 -47 0
-8 -48 0
7 8 60 61 0
-7 -54 0
-8 -55 0
-20 41 42 70 0
-8 -57 0
37 38 62 63 0
-7 -60 0
-8 -61 0
9 10 74 75 0
-7 -66 0
-8 -67 0
21 22 50 51 0
20 -42 70 -77 0
-9 -27 0
-10 -28 0
35 36 66 67 0
-9 -41 0
-10 -42 0
5 6 47 48 0
-9 -45 0
-10 -46 0
14 15 74 75 0
-9 -50 0
-10 -51 0
39 40 74 75 0
-9 -71 0
-10 -72 0
1 2 33 34 0
-9 -74 0
-10 -75 0
31 32 66 67 0
-10 -76 0
-11 -25 0
-12 -26 0
-11 -29 0
-12 -30 0
20 62 63 -70 0
-11 -43 0
-12 -44 0
1 2 58 59 0
-11 -47 0
-12 -48 0
7 8 47 48 0
-11 -54 0
-12 -55 0
21 22 66 67 0
-11 -64 0
-12 -65 0
16 -25 59 0
-11 -71 0
-12 -72 0
20 -42 -62 70 0
-11 -74 0
-12 -75 0
50 51 64 65 0
16 -25 33 34 0
-13 -26 0
43 44 60 61 0
16 26 -58 0
-13 -40 0
3 4 41 42 0
16 25 26 -33 0
-13 -75 0
-14 -27 0
-15 -28 0
21 22 62 63 0
-14 -29 0
-15 -30 0
-14 -45 0
-15 -46 0
-3 37 38 73 0
-15 -49 0
3 4 47 48 0
21 22 -29 56 0
-15 -53 0
21 22 39 40 0
-14 -66 0
-15 -67 0
29 30 -31 56 0
-14 -74 0
-15 -75 0
5 6 66 67 0
19 -35 71 72 0
-16 -26 0
25 26 58 59 0
19 35 36 -71 0
-16 -34 0
7 8 -33 57 0
19 35 36 -50 0
-16 -59 0
11 12 47 48 0
-17 -37 0
-18 -38 0
37 38 66 67 0
-17 -39 0
-18 -40 0
33 34 64 65 0
-17 -54 0
-18 -55 0
-14 21 22 49 0
-17 -68 0
-18 -69 0
-1 3 4 73 0
20 -62 77 78 0
-19 -36 0
11 12 29 30 0
3 4 -9 76 0
-19 -51 0
17 18 68 69 0
3 4 -45 76 0
-19 -72 0
-3 52 60 61 0
-20 -63 0
14 15 49 -58 0
52 -60 77 78 0
-3 9 10 76 0
11 12 64 65 0
-3 52 77 78 0
-20 -78 0
50 51 71 72 0
13 25 26 -39 0
9 10 50 51 0
13 -39 74 75 0
-21 -39 0
-22 -40 0
3 4 -37 73 0
-22 -49 0
-21 -50 0
-22 -51 0
21 22 49 -58 0
-7 33 34 57 0
-22 -56 0
41 42 68 69 0
-21 -62 0
-22 -63 0
14 15 29 30 0
-21 -66 0
-22 -67 0
1 2 27 28 0
-21 -77 0
-22 -78 0
20 -32 70 -77 0
-23 -43 0
-24 -44 0
-23 -58 0
-24 -59 0
-23 -64 0
-24 -65 0
14 15 -21 49 0
-23 -68 0
-24 -69 0
17 18 37 38 0
-25 -58 0
-26 -59 0
5 6 37 38 0
1 2 -3 73 0
9 10 45 46 0
31 32 -42 70 0
-28 -57 0
7 8 45 46 0
-29 -54 0
-30 -55 0
3 4 43 44 0
27 28 -33 57 0
-30 -56 0
20 62 63 -77 0
-29 -68 0
-30 -69 0
50 51 62 63 0
-29 31 32 56 0
-32 -53 0
9 10 71 72 0
-7 27 28 57 0
-32 -56 0
-31 -66 0
-32 -67 0
11 12 74 75 0
-31 -70 0
-9 45 46 76 0
29 30 54 55 0
-21 31 32 56 0
-34 -53 0
45 46 64 65 0
-20 31 32 70 0
-34 -57 0
35 36 68 69 0
-33 -62 0
-34 -63 0
43 44 71 72 0
-33 -64 0
-34 -65 0
-35 -58 0
-36 -59 0
23 24 64 65 0
-35 -66 0
-36 -67 0
29 30 68 69 0
-35 -68 0
-36 -69 0
17 18 39 40 0
-37 -62 0
-38 -63 0
16 -33 58 59 0
-37 -66 0
-38 -67 0
3 4 52 -77 0
13 25 26 -74 0
-38 -73 0
-39 -54 0
-40 -55 0
11 12 25 26 0
-39 -74 0
-40 -75 0
14 15 -31 53 0
-41 -58 0
-42 -59 0
-21 29 30 56 0
-41 -68 0
-42 -69 0
14 15 45 46 0
-41 -70 0
-3 45 46 76 0
3 4 52 -60 0
-43 -60 0
-44 -61 0
19 -35 50 51 0
-43 -71 0
-44 -72 0
9 10 41 42 0
-45 -64 0
-46 -65 0
50 51 60 61 0
-46 -76 0
-1 37 38 73 0
-47 -77 0
-48 -78 0
11 12 54 55 0
-49 -59 0
-50 -60 0
-51 -61 0
23 24 68 69 0
-50 -62 0
-51 -63 0
41 42 58 59 0
-50 -64 0
-51 -65 0
-14 49 58 59 0
-50 -71 0
-51 -72 0
-21 49 58 59 0
31 32 -33 53 0
-52 -61 0
21 22 77 78 0
-14 31 32 53 0
-52 -78 0
11 12 71 72 0
